n = 100;
C = 482;
w = [377,20,415,121,46,362,21,720,857,461,531,775,781,609,149,315,598,60,755,341,173,87,647,128,439,2,536,940,631,557,946,294,151,231,932,325,3,363,137,550,686,782,935,49,675,674,523,794,350,406,875,490,664,275,794,483,894,369,904,711,410,432,280,889,545,615,168,794,483,913,580,38,399,795,899,5,300,463,200,194,289,124,747,511,830,524,805,567,40,485,568,627,81,632,388,334,638,53,899,993];
p = [271,167,69,133,175,790,565,467,702,654,631,498,378,225,944,950,537,876,403,38,210,385,591,167,164,989,103,183,357,843,273,195,333,799,392,858,24,60,858,848,24,78,586,268,504,705,423,154,74,744,907,538,266,63,341,606,745,106,888,728,59,819,690,338,273,271,925,84,536,930,425,906,48,703,920,907,286,945,241,395,626,621,62,873,225,109,365,274,908,254,771,445,471,987,188,269,156,16,645,114];
